Name: Hydrogen
Synon: Dihydrogen
Synon: o-Hydrogen
Synon: p-Hydrogen
Synon: Molecular hydrogen
Synon: H2
Synon: UN 1049
Synon: UN 1966
Comments: American Petroleum Institute Research Project 44
Formula: H2
MW: 2
CAS#: 1333-74-0;  NIST#: 245692
DB#: 1
Num Peaks: 2
1 21; 2 999; 

Name: Deuterium
Synon: D2
Synon: UN 1957
Comments: D.HENNEBERG, MAX-PLANCK INSTITUTE, MULHEIM, WEST GERMANY
Formula: D2
MW: 4
CAS#: 7782-39-0;  NIST#: 61316
DB#: 2
Num Peaks: 2
2 15; 4 999; 

