##TITLE=Hydrogen
##JCAMP-DX=Revision 4.24 
##DATA TYPE=MASS SPECTRUM
##ORIGIN= American Petroleum Institute Research Project 44
##NAMES=HP
##MOLFORM=H2
##CAS REGISTRY NO=1333-74-0
##MW=2
##NPOINTS=2
##XYDATA=(XY..XY) 1 
1.000000e+000 ,2.100000e+001
2.000000e+000 ,9.990000e+002
##END=
##TITLE=Deuterium
##JCAMP-DX=Revision 4.24 
##DATA TYPE=MASS SPECTRUM
##ORIGIN= D.HENNEBERG, MAX-PLANCK INSTITUTE, MULHEIM, WEST GERMANY
##NAMES=HP
##MOLFORM=D2
##CAS REGISTRY NO=7782-39-0
##MW=4
##NPOINTS=2
##XYDATA=(XY..XY) 1 
2.000000e+000 ,1.500000e+001
4.000000e+000 ,9.990000e+002
##END=